(set-logic ALL)
(declare-fun var0 () String)
(assert (str.in_re var0 (re.++ (re.union (re.union (str.to_re "00") (str.to_re "111")) (re.union (str.to_re "2") (str.to_re "3"))) (re.++ (re.union (re.+ (str.to_re "444")) (re.+ (str.to_re "5"))) (re.++ (re.+ (re.+ (str.to_re "6"))) (re.++ (re.+ (re.+ (str.to_re "77"))) (re.++ (re.+ (re.union (str.to_re "888") (str.to_re "99"))) (re.++ (re.* (re.* (str.to_re "aa"))) (re.++ (re.* (re.+ (str.to_re "bb"))) (re.++ (re.* (re.+ (str.to_re "ccc"))) (re.++ (re.* (re.+ (str.to_re "dd"))) (re.++ (re.+ (re.union (str.to_re "ee") (str.to_re "fff"))) (re.++ (re.* (re.+ (str.to_re "g"))) (re.++ (re.union (re.union (str.to_re "hh") (str.to_re "iii")) (re.union (str.to_re "jj") (str.to_re "kk"))) (re.++ (re.union (re.union (str.to_re "lll") (str.to_re "mmm")) (re.union (str.to_re "n") (str.to_re "ooo"))) (re.++ (re.+ (re.+ (str.to_re "pp"))) (re.++ (re.* (re.union (str.to_re "q") (str.to_re "rr"))) (re.++ (re.+ (re.+ (str.to_re "s"))) (re.++ (re.* (re.union (str.to_re "t") (str.to_re "uuu"))) (re.++ (re.union (re.* (str.to_re "vv")) (re.* (str.to_re "www"))) (re.++ (re.union (re.* (str.to_re "xxx")) (re.* (str.to_re "yyy"))) (re.++ (re.union (re.+ (str.to_re "z")) (re.+ (str.to_re "AA"))) (re.++ (re.union (re.* (str.to_re "B")) (re.* (str.to_re "C"))) (re.++ (re.+ (re.union (str.to_re "DD") (str.to_re "EEE"))) (re.++ (re.+ (re.+ (str.to_re "FFF"))) (re.++ (re.+ (re.+ (str.to_re "G"))) (re.++ (re.* (re.* (str.to_re "HH"))) (re.++ (re.* (re.+ (str.to_re "I"))) (re.++ (re.* (re.* (str.to_re "JJ"))) (re.++ (re.* (re.union (str.to_re "KK") (str.to_re "L"))) (re.++ (re.union (re.* (str.to_re "MMM")) (re.* (str.to_re "NN"))) (re.++ (re.* (re.+ (str.to_re "O"))) (re.++ (re.+ (re.+ (str.to_re "PP"))) (re.++ (re.union (re.+ (str.to_re "Q")) (re.+ (str.to_re "RRR"))) (re.++ (re.+ (re.union (str.to_re "SSS") (str.to_re "TT"))) (re.++ (re.union (re.* (str.to_re "U")) (re.* (str.to_re "VVV"))) (re.++ (re.union (re.* (str.to_re "W")) (re.* (str.to_re "XXX"))) (re.++ (re.+ (re.* (str.to_re "Y"))) (re.++ (re.* (re.* (str.to_re "Z"))) (re.++ (re.union (re.* (str.to_re "!")) (re.* (str.to_re """"""))) (re.union (re.* (str.to_re "#")) (re.* (str.to_re "$$")))))))))))))))))))))))))))))))))))))))))))
(check-sat)